54 18
87 76
74 78
71 71
25 38
35 56
45 3
13 40
18 40
24 42
71 44
64 60
68 58
83 69
58 69
54 62
51 67
37 84
41 94
2 99
7 64
22 60
25 62
62 32
87 7
38 91
83 46
26 41
45 21
44 35